0 3801
2401 3643
4802 3559
7203 3496
9604 3453
12005 3423
14406 3401
16807 3376
19208 3344
21609 3290
24010 3268
26411 3251
28812 3243
31213 3242
33614 3241
36015 3232
38416 3220
40817 3206
43218 3192
45619 3186
48020 3180
50421 3179
52822 3178
55223 3177
57624 3175
